p cnf 150 210
-27 76 136 0
-73 -67 11 0
111 83 -52 0
-121 55 -42 0
-114 36 -133 0
5 24 -16 0
105 -82 11 0
-91 99 13 0
92 14 16 0
30 -97 103 0
88 -3 -122 0
30 -59 -2 0
85 -33 -83 0
-66 34 72 0
-59 -54 -125 0
40 -49 18 0
65 -58 47 0
45 5 -148 0
34 29 -14 0
40 115 -127 0
-123 26 -73 0
39 58 67 0
-26 35 82 0
-98 -149 61 0
60 32 40 0
-116 -101 45 0
93 -122 42 0
51 16 97 0
-89 -37 54 0
81 141 -34 0
46 -108 16 0
-150 99 -143 0
-118 -129 -16 0
-97 116 -25 0
-65 -120 57 0
-114 -142 -68 0
131 -38 79 0
97 75 41 0
80 90 -116 0
-139 -19 -47 0
141 -75 -132 0
-110 -93 149 0
32 30 -50 0
127 65 -84 0
141 -94 -137 0
-4 31 103 0
13 6 -117 0
-143 -128 -77 0
-29 -7 -56 0
-133 75 50 0
-130 -27 -35 0
138 148 17 0
112 116 -134 0
-126 -119 -8 0
62 -4 -64 0
-28 96 130 0
-93 -36 8 0
-66 -144 -16 0
-30 -124 29 0
-109 -98 101 0
142 63 116 0
-109 11 42 0
-44 -109 20 0
65 31 69 0
-28 -3 -118 0
38 -91 60 0
126 53 2 0
-67 42 17 0
-62 14 75 0
136 65 -93 0
88 -64 -126 0
-142 10 -148 0
20 149 125 0
96 -27 -36 0
81 13 -32 0
-89 143 27 0
9 56 -101 0
1 -7 147 0
-125 100 102 0
-76 -59 88 0
-48 103 -117 0
-77 -121 -108 0
-100 124 -111 0
-87 -140 97 0
-23 30 40 0
32 -141 144 0
142 61 52 0
48 -68 83 0
55 13 -46 0
-79 98 -73 0
70 -92 91 0
-118 -23 -136 0
-124 -8 140 0
15 150 35 0
82 -18 -106 0
13 39 95 0
-61 -46 47 0
-42 -102 69 0
70 57 39 0
-94 19 18 0
48 -59 86 0
-40 -136 -121 0
-107 57 -126 0
-57 -130 -87 0
-105 -63 -1 0
74 -27 28 0
-133 -29 91 0
131 -106 130 0
56 92 -99 0
115 63 117 0
-49 116 44 0
-144 -123 28 0
-126 33 -107 0
96 14 110 0
-130 -100 -52 0
83 132 108 0
-4 28 38 0
8 85 91 0
83 -133 7 0
-32 -27 74 0
-33 114 -102 0
6 69 74 0
138 63 -89 0
-139 -66 -124 0
112 -10 -2 0
-107 -38 -53 0
60 59 -35 0
-127 -131 -66 0
-118 -23 78 0
-37 67 46 0
-105 5 -108 0
-12 104 35 0
6 136 -149 0
-128 94 -13 0
25 -149 -88 0
59 148 141 0
44 -121 82 0
-123 -110 146 0
-82 74 7 0
120 -149 -3 0
-113 90 43 0
141 -70 98 0
47 -33 2 0
-150 -148 -22 0
100 -106 150 0
-89 -47 -129 0
76 56 36 0
150 139 -116 0
-48 -94 -41 0
-20 74 144 0
x 2 4 5 -6 -7 8 13 -14 -15 -21 -22 -24 25 -26 -28 -30 -31 -32 -36 -37 39 41 -43 45 -46 47 49 53 -54 55 -59 60 61 63 64 -66 -67 -68 71 -72 -75 76 77 78 80 -82 83 -84 -86 -88 -89 91 -95 -100 101 104 -105 106 107 -111 -112 115 116 121 125 -126 -128 129 -132 134 -136 138 140 -143 -144 146 -147 0
x 1 2 -3 4 -5 -6 7 -9 11 13 14 17 19 -22 25 31 32 33 34 -35 36 38 41 43 -44 -46 47 48 51 52 -53 56 -60 62 -64 65 -68 69 -70 71 74 -75 -78 79 -80 -81 84 87 -88 89 93 95 97 98 -107 108 109 -111 112 113 114 -116 -121 -124 -125 -127 128 129 131 134 135 137 139 141 -143 -144 -146 147 -149 150 0
x -1 3 4 -7 11 -13 14 -16 -17 -21 -22 24 -25 -27 -29 30 -31 -32 35 36 41 -47 48 49 51 55 56 -60 62 63 64 72 -73 -74 -75 77 79 -80 -81 82 84 -85 86 88 -89 91 -92 93 99 100 101 103 104 106 -107 108 -110 -111 -112 -114 -115 118 120 122 123 125 -126 130 131 -132 133 -134 -137 138 -139 140 141 143 -144 146 -147 -148 149 150 0
x 3 -5 -6 7 -9 12 14 -18 -22 -29 -30 34 38 -40 42 -43 -44 -45 47 50 -51 52 -53 -55 57 59 60 61 62 65 67 -69 -71 -72 74 75 -76 -77 78 80 -85 86 87 88 89 -91 92 -95 99 101 102 103 105 -106 107 -108 -109 110 115 -117 -118 -119 -120 123 -124 126 -127 128 -129 130 -131 -132 -135 137 -140 141 143 144 147 149 150 0
x 3 -6 -8 10 13 16 17 -18 -22 23 -24 -25 -26 -28 30 31 -34 -36 -38 39 40 42 -50 -53 54 -58 59 60 61 -63 66 -67 69 70 -73 74 75 -77 -78 82 -84 85 -87 -90 91 -94 -96 -98 99 -103 -109 -112 113 -114 115 116 -118 -120 121 -125 -126 129 130 -132 134 135 -137 -138 -139 -141 -142 143 145 -149 150 0
x -2 6 14 -15 16 18 -19 -20 21 -24 26 -28 -34 -37 39 -44 -49 -50 52 -54 56 60 61 -62 -63 -66 67 70 78 83 89 92 98 -100 -103 106 108 110 111 113 -120 -121 123 -125 127 129 131 136 -137 138 140 -141 -145 -146 147 149 0
x -1 2 -3 5 -6 -7 -9 11 -13 14 15 16 17 21 22 -23 -26 27 -28 29 31 -33 -35 37 39 41 42 45 -46 47 -52 54 -55 56 57 59 -61 -62 64 -66 -68 69 -71 72 -73 -74 75 -78 80 -81 82 83 87 88 91 93 -94 -97 98 -101 102 103 105 -106 -111 112 -114 -115 -117 120 121 -124 -128 -130 132 -139 -143 145 146 147 -148 -150 0
x 1 -4 5 7 -9 10 -12 -13 -15 16 -17 -21 22 -24 25 26 28 -29 -31 -32 34 35 38 -41 -43 44 -45 46 -50 51 53 54 55 -57 60 -61 -63 -65 -66 -71 -72 74 75 -77 -78 -79 -81 -89 -90 95 99 -100 101 -102 104 105 -106 -107 108 109 112 -113 -114 117 120 -124 125 -127 -130 133 134 135 136 137 -138 -139 -142 -145 146 -147 -149 -150 0
x -3 -9 12 13 -16 18 19 26 28 -29 -30 31 32 34 37 40 41 43 -44 -45 48 49 50 51 -52 55 56 58 -59 -60 63 -65 -71 72 74 -76 -77 78 79 84 -85 86 87 94 95 99 -100 -101 106 -109 110 111 112 114 115 -117 -118 122 -126 -128 -129 -132 135 -137 140 141 143 -144 146 -147 -148 -149 0
x 3 -6 8 9 -11 16 -20 -21 22 -23 24 25 26 -27 -32 33 -34 36 38 39 41 -42 44 46 47 50 -51 -55 56 -57 62 63 -66 -68 70 71 73 75 -78 -80 -83 -84 -86 -96 99 100 -102 -103 -109 -111 114 -115 -116 -117 -118 -119 120 121 124 125 -126 -129 131 -132 134 137 139 -140 141 142 -143 147 149 150 0
x -4 -7 -9 10 -13 -14 18 -19 -20 21 -22 -24 29 -30 -33 -36 38 -40 -41 42 45 49 -51 52 55 -56 -57 58 -59 60 -61 64 -65 68 -69 -70 71 73 -74 75 77 79 -80 -84 -85 88 90 91 93 94 95 -101 102 -103 -105 106 -107 108 -109 -110 -111 -116 -119 -120 122 -123 126 -127 -128 -129 131 132 137 138 -142 146 148 0
x -1 -2 -3 4 5 -6 8 -9 10 -13 -14 15 17 -19 21 -22 24 25 -29 30 31 -33 34 35 40 41 42 44 -46 52 -54 56 -57 58 -62 -64 -65 66 72 80 -83 -85 86 87 -89 91 93 -94 95 -96 -97 99 100 -103 -106 108 111 -112 113 -115 116 -118 119 121 122 -124 125 -126 -130 132 134 -136 139 -143 144 146 147 148 149 150 0
x 4 5 11 -13 15 -17 18 -24 26 -31 -33 34 -38 -39 -40 41 44 45 -48 -51 53 54 55 -58 -60 66 67 -68 -69 71 73 -74 -77 -78 -81 -82 -83 -84 -85 88 -89 91 -93 94 -95 -96 97 100 -102 -104 -105 -106 -107 108 -112 113 114 -115 -118 -120 -121 122 124 128 130 -132 -134 -136 137 138 -139 140 141 -144 146 -148 150 0
x -4 5 -7 -9 13 -14 -15 16 -17 -18 -19 20 -23 -25 -26 -27 -28 29 30 34 39 -40 42 -44 45 47 -53 -54 -56 -57 58 -62 -65 70 -73 -74 76 78 -81 -84 -85 -86 87 -90 92 93 96 -97 -101 104 -106 -108 111 -113 -114 -115 -117 119 -122 127 128 129 -131 132 135 143 144 148 -149 -150 0
x 1 -5 -6 9 10 11 12 14 17 -19 -22 -26 27 28 29 35 36 38 -39 42 43 44 45 -46 49 -50 60 -63 -64 66 68 70 -72 -74 75 76 77 80 81 82 86 -88 -89 90 93 96 98 -100 -101 -104 -105 110 111 112 113 115 -118 119 122 -123 124 133 -135 -137 138 -139 140 141 145 147 0
x 1 -2 3 6 9 -10 11 -12 13 15 -17 18 22 -23 -25 -26 -28 -32 -33 -35 -36 -38 41 44 -46 -52 54 -55 -57 -59 -65 66 -67 -68 72 -73 74 -77 78 -80 -84 -85 -86 87 -89 -90 -92 -93 -95 98 99 -101 104 -109 115 116 -117 -118 -119 120 122 -123 -125 -126 -128 -133 -134 135 136 137 138 139 140 -143 -146 -148 0
x -1 -2 -3 -4 5 9 10 11 14 -16 -17 -18 19 -20 -23 26 -30 -32 -33 35 -40 42 43 -44 -50 51 56 58 -65 -69 73 74 -76 -77 -79 -83 -86 -89 -90 92 -96 97 100 103 -107 -108 -110 -112 -115 116 -118 119 122 123 -127 -129 -130 -136 137 139 -140 141 143 -144 145 -148 -149 0
x -6 -8 9 -10 11 13 14 15 -16 -18 19 -20 -24 26 -28 -29 -30 33 -34 -36 -37 -38 40 41 -42 43 47 -48 -50 51 53 -57 -58 59 60 -61 -63 65 68 72 74 77 78 -82 83 84 86 -91 92 -93 -95 99 100 101 -102 -103 104 -107 -108 -110 -111 114 116 -118 119 -121 -122 123 -126 -128 -130 -134 138 -144 146 0
x 5 7 -8 -9 -10 -14 17 -20 22 -25 28 30 -31 32 -34 -35 -36 37 40 41 42 45 46 -55 -57 -59 -62 -65 66 -68 -69 -70 72 -76 -77 80 81 -82 83 86 -89 -91 93 -95 -98 -99 100 102 105 -107 109 -111 -112 113 114 -115 119 120 -123 -127 -128 -129 131 -132 -133 138 140 143 146 -147 -149 0
x 3 -8 -9 11 -12 -16 18 -19 21 -22 -25 -27 29 30 34 -35 -36 -38 -39 -40 41 -43 45 -46 -47 52 53 54 -56 61 65 67 68 70 -73 74 75 -79 -82 83 86 -87 -90 91 94 -95 -97 99 103 105 106 107 -109 -110 113 114 -115 -117 -119 121 122 -126 127 129 -130 -132 133 -136 137 138 -139 140 141 142 -143 -144 146 149 -150 0
x -1 2 5 -6 -7 -8 9 13 -15 17 18 19 -20 24 -25 29 31 32 -35 36 37 39 -40 -45 -49 -50 52 -53 -55 57 59 -60 64 -65 -66 67 -68 69 70 73 -74 -77 79 -80 -84 -88 -89 -90 -91 -92 94 95 -96 97 98 -99 -100 103 104 105 109 -110 -111 116 -117 119 121 -124 -126 -127 128 131 -132 133 134 -137 -138 -142 -143 144 146 -147 148 0
x 2 -3 5 6 -7 9 13 14 -15 -19 20 21 -22 -25 -28 29 30 -31 33 -34 35 36 -38 -41 -42 -44 -46 48 -52 -53 -54 55 56 -58 -59 60 62 64 -65 -66 68 71 72 73 -75 -78 82 83 85 87 88 89 90 95 -98 99 -101 105 106 -109 -110 -114 -116 -117 -118 -121 -125 128 129 -130 -131 -135 -136 -137 140 -142 -143 -144 149 0
x -1 -6 9 -11 -12 14 16 19 22 24 -28 -29 31 33 34 -37 -39 -40 42 43 -44 -46 49 50 -51 -55 -56 57 58 59 -64 67 68 -69 -70 -72 77 -78 -79 -82 -83 -84 86 -89 -90 91 92 -95 -96 -97 98 100 102 -104 -105 -106 -108 110 -111 -113 117 120 123 -124 125 126 -128 129 -130 -131 133 134 -136 139 -141 -142 143 -144 146 149 0
x -1 -2 3 4 6 10 -11 -15 -16 -17 -18 20 -22 25 -26 -28 -29 -31 -35 37 40 41 -42 43 -44 -50 -53 54 -55 56 58 -64 -67 -69 -72 -73 74 -75 77 -78 80 82 -90 95 -96 -97 98 -99 -100 -101 -103 104 -105 106 -107 -110 -111 113 -114 -121 -125 126 -127 -129 130 -131 -133 -134 137 139 -140 142 144 -146 148 0
x -3 4 5 -6 -10 -12 -13 14 17 18 -19 20 -21 23 26 -27 -31 -32 -34 35 37 38 -39 -43 45 46 -53 -54 61 64 -65 66 67 75 76 -78 82 86 -87 88 89 -90 91 93 94 95 -97 -98 99 -108 110 117 -119 120 121 -122 -125 126 -127 131 -132 -133 134 -137 139 -141 -143 -144 146 -149 150 0
x 1 6 7 8 9 11 12 17 -18 -19 -20 21 -22 23 26 27 29 31 32 -35 -37 -39 41 43 -45 -46 -48 -50 -51 -53 55 -57 -58 -60 63 -66 67 68 70 71 73 -74 78 79 -80 -87 88 -89 90 -91 -92 93 95 97 -102 103 106 107 109 -110 111 112 -115 -118 119 122 123 -126 127 -129 131 -133 -135 136 -137 -138 -139 140 -142 -145 0
x -5 -7 8 -12 -14 16 17 -19 -20 -22 -23 -24 -25 -26 -30 31 -32 42 -43 -46 47 -49 51 53 56 58 -61 62 63 64 65 -67 68 69 70 71 -72 74 78 79 80 81 82 -84 86 -87 -89 -90 91 94 -97 -101 104 106 -107 110 -113 -114 -116 -118 121 122 124 125 127 128 -130 -131 -133 134 136 -138 -139 140 -142 -143 -145 146 147 148 149 150 0
x 1 6 -7 -8 9 10 12 13 14 15 -16 17 -20 -26 28 30 31 34 35 36 37 -38 39 -40 48 49 51 -53 54 -56 -57 59 62 -63 68 71 -72 -76 -77 79 81 83 85 86 -87 93 -95 96 98 100 105 109 -110 111 -112 115 -116 -117 -119 120 121 123 124 125 126 129 -131 -133 135 -137 -140 -141 143 -144 -145 -148 -149 -150 0
x 1 3 4 -5 -7 -12 -16 -17 19 -22 27 -28 -29 -30 -31 -32 -38 41 -42 -43 44 -45 51 -55 56 -57 58 -60 63 -65 70 -71 72 73 75 76 -78 -81 -87 95 96 98 -100 104 107 110 111 -116 -118 122 -123 124 125 -130 131 -135 136 137 -138 -140 141 -142 144 145 -149 0
x -1 -2 -3 5 -10 -11 -12 15 16 17 -18 -20 -21 22 24 -28 29 -31 -33 34 35 -37 39 -40 41 42 43 -44 45 -46 47 -49 50 -51 52 53 -55 57 58 -60 -64 65 -66 -67 69 -70 -71 73 74 -75 76 77 -79 -80 83 -85 -86 88 89 91 -92 -93 -96 100 -101 103 -104 -105 109 110 111 -112 115 -118 120 123 -124 -127 129 -130 -135 -138 -139 142 -143 -146 149 0
x -3 -6 -7 10 13 15 16 -18 -19 24 -26 -27 -28 -29 32 -35 37 -40 -41 -42 -43 48 -49 51 -52 -53 54 -55 -56 -58 -60 61 -62 -63 -64 -68 77 -78 -80 -84 86 89 90 92 -93 98 -99 -100 102 103 104 106 -109 -110 113 114 -115 116 -117 120 -122 -125 129 -130 -131 -132 -135 136 137 -139 140 142 143 -144 145 148 149 150 0
x 1 -3 4 5 -9 12 14 16 17 18 19 23 24 -25 -26 -27 28 -29 30 32 34 -36 37 -38 -40 -42 -43 44 46 -51 -52 57 -59 -60 61 -62 -64 -72 -73 76 77 -78 79 81 83 -88 -89 -90 91 92 -93 96 100 -101 -102 -103 106 110 111 -115 -117 118 120 -121 -123 125 -126 -128 -132 133 134 136 137 -138 140 143 149 150 0
x 1 -2 -3 -5 6 9 12 14 -18 19 -20 -22 24 25 27 28 29 -31 -33 -34 35 41 43 -46 -48 53 -54 -55 -59 64 -66 67 70 -71 -72 -73 74 -75 77 78 82 83 -86 87 92 -93 -94 95 -99 101 103 105 106 -108 110 111 -119 -123 125 132 -134 -138 139 140 141 143 144 145 150 0
x -1 -4 -6 7 -8 -10 12 13 14 -15 -18 -19 -20 -24 26 -28 29 32 -33 -34 35 -36 -39 42 49 50 -54 -55 56 -57 -58 -60 61 62 -63 64 -69 70 -72 73 -74 -75 76 -79 -81 83 -85 87 -88 92 93 -94 97 100 -101 104 106 -108 110 -112 116 -117 118 120 -121 128 131 -132 -135 136 -137 -138 -139 141 145 -148 0
x 1 -3 -5 -6 -7 -8 9 10 13 -14 21 -22 -26 -34 36 37 -41 -43 44 -46 -49 50 51 52 57 60 -61 -62 65 68 71 -76 -77 -81 -86 87 -88 -92 -94 95 -97 -98 -99 103 105 107 108 -109 -110 -112 113 -114 115 116 117 118 119 123 124 -127 -130 -131 132 -135 136 -146 -147 -148 -149 150 0
x 1 5 7 12 -15 -17 -18 -20 21 -22 23 -24 25 -28 -30 31 -33 -35 38 -39 40 41 -43 44 -46 -54 55 -57 -58 60 62 -63 -64 65 66 69 -70 -72 -73 -74 77 78 79 82 91 -92 -93 -94 95 96 -98 101 -102 -107 -110 -112 -115 116 -120 123 126 128 -129 131 -134 -136 -139 142 -143 -144 145 148 0
x 1 -6 -7 11 13 -14 15 -18 21 -25 26 27 28 31 -32 33 35 36 37 -38 40 -44 -45 46 -47 52 -53 -57 -60 -62 63 65 -66 69 -73 -75 77 78 -79 -81 82 84 85 86 90 -98 -103 106 -107 108 109 111 -112 -113 114 -115 116 121 -122 -125 127 128 129 131 -136 -137 -140 -141 -142 -143 146 148 -150 0
x -2 3 4 5 7 9 10 -11 13 14 15 -16 -18 -19 -20 -22 -26 -33 35 38 -39 40 -42 -43 -44 45 46 -47 48 -49 52 55 56 -61 -62 -63 64 66 -69 70 -73 -74 80 82 -83 86 -87 88 92 96 101 -105 -108 112 113 -114 116 119 -120 121 122 -125 -127 -130 -135 136 -137 -141 -144 -146 -148 0
x 1 -2 3 5 6 7 8 10 11 -13 14 -20 22 24 -25 27 -29 -32 -34 35 -37 -39 40 43 44 45 -46 48 50 52 -55 -56 59 61 62 -65 -66 -67 -68 -69 71 73 -74 75 -76 77 78 -80 81 83 -84 86 87 88 89 90 -91 92 -93 94 95 97 -100 101 -102 -103 104 107 108 109 -111 112 -113 114 115 -116 -117 -118 120 121 122 125 126 -127 -129 -130 132 133 134 -135 138 -139 -142 -143 147 149 0
x -1 -2 3 -4 -7 -8 13 -15 -16 20 -22 -23 26 -27 28 29 34 -36 37 -43 -44 49 -50 52 -53 -55 -56 57 -59 62 63 64 -66 67 -68 69 -73 75 -77 79 82 -83 -85 -86 -87 89 92 94 -95 -97 -99 -102 -103 104 106 110 -116 -121 -122 123 127 129 -131 -132 -135 136 -137 -138 -139 140 141 142 -143 -145 -146 -149 -150 0
x -2 4 5 6 7 -8 10 -11 13 -15 -21 -24 26 -29 -30 -32 34 -35 39 42 -43 -47 -49 -50 51 -52 53 54 56 57 -62 63 64 67 -70 -71 72 74 75 78 -80 81 82 89 -90 95 -96 100 -102 -103 104 105 106 -107 108 111 -112 -114 115 -116 -117 125 127 128 -129 130 133 134 -140 -141 -143 -146 -147 149 150 0
x -1 -2 3 -4 5 -12 14 15 16 18 20 21 24 27 30 31 33 36 37 -38 39 41 -43 -44 -46 -47 48 49 -50 51 -53 -57 59 -60 62 63 -64 65 66 68 69 -71 -73 -74 -75 81 83 85 -87 -90 -91 93 -95 -96 -99 -101 103 -104 -106 111 113 -114 115 117 -121 -122 -126 -127 -129 -130 -132 -133 -136 137 -141 -142 -145 -146 149 150 0
x 2 -3 5 7 11 -14 15 17 -19 -21 -22 -24 30 -31 32 -33 34 35 41 -43 45 -47 50 -51 54 -55 -56 -57 -59 -63 64 -68 72 76 79 -82 -84 86 91 -95 96 -97 98 -99 -103 104 -107 110 112 -119 -120 121 -123 127 -128 130 -131 136 -137 140 -143 146 147 148 0
x -4 5 -6 7 8 -9 -10 11 -13 -16 17 -18 19 -20 -21 24 -25 -29 -32 34 35 36 37 39 -40 41 -42 47 -49 -51 -52 -53 55 56 57 58 -60 61 63 64 -66 69 -71 -77 -78 80 -81 82 88 -89 -90 94 95 -98 100 101 -102 -103 104 -105 -106 107 109 -110 -111 113 116 119 121 -123 124 125 -127 -128 134 137 138 -139 -140 141 144 148 -150 0
x 1 -2 3 -4 5 9 -11 13 -14 16 18 -19 -20 21 24 25 -26 -27 -33 41 42 46 -47 -50 -51 -52 -53 -54 55 56 58 60 61 62 -63 -66 67 69 74 75 -76 -84 -87 91 92 -98 104 -105 -107 108 -111 -116 -117 118 119 121 -122 124 -132 -135 -136 138 -140 -141 144 -146 -148 0
x -1 -3 5 -8 -9 11 12 -13 14 -15 18 -19 21 -24 27 -28 -29 -30 -33 36 37 -38 39 45 -47 51 53 55 56 -57 -59 -61 -67 69 71 73 74 -75 77 -79 -85 87 -89 -90 91 92 -93 -94 -95 -96 -99 -100 101 102 -103 104 -105 -107 108 114 -115 -117 -119 -120 122 123 125 128 129 131 -132 -134 135 140 -142 -144 -145 146 -150 0
x 1 2 -3 5 6 -7 -9 10 -11 12 14 -15 22 23 25 -30 -34 -36 38 -40 41 43 -44 46 47 -54 -55 56 -57 -58 -61 -62 -65 -68 73 -75 78 80 82 86 87 -88 -89 -90 -91 94 96 -98 -100 102 104 105 -107 -108 -110 -112 -114 -116 -118 121 -123 -128 -130 -133 134 -138 -140 142 -148 -150 0
x 1 3 4 -9 10 -12 18 19 20 24 -25 -30 31 -36 38 -39 -40 -41 43 -44 45 46 47 48 -50 52 -53 55 56 -59 -65 -66 68 -70 -71 -72 -73 -75 76 -77 -78 81 82 -84 86 88 90 92 -95 -96 -97 -102 -103 -105 -106 -107 -111 -113 -115 116 117 118 -119 -120 -123 127 -131 132 -133 134 -135 137 139 140 146 148 -149 0
x 1 -2 -3 -4 -5 8 -9 -11 -14 15 -18 -21 -22 -23 24 -26 -27 28 29 30 -31 33 34 -35 36 38 39 -41 -44 46 -48 -49 53 59 -63 64 67 -68 70 -71 -72 -74 -75 -80 -81 83 -84 86 92 -94 -96 -97 -98 100 -102 -103 -105 -109 -113 -119 121 122 -123 124 131 132 -133 -136 138 140 -142 -144 -145 147 -149 0
x -4 -6 -10 15 -16 19 20 21 -22 -27 -29 30 -33 38 39 -40 41 -43 -44 -45 -46 -48 -49 -50 51 -53 -54 -55 -59 -60 63 -64 -65 -66 -67 -69 -72 -73 -74 -76 78 -82 86 -87 -88 89 -90 -91 93 94 95 97 -98 100 -103 -104 107 110 112 113 -116 -117 -118 -121 -122 -125 -126 127 128 -129 -130 -132 135 140 142 -143 -147 0
x 1 4 6 -9 10 14 -15 17 -22 24 -26 28 -29 33 -34 35 -37 40 -42 45 46 47 -48 49 -51 -54 -55 -57 -58 -59 62 -63 67 -68 69 -70 -72 -73 -74 -76 -77 78 -79 -81 -83 -88 91 -92 98 -101 102 103 -104 -105 -108 -109 110 111 -113 -115 116 -119 121 124 -125 126 127 -130 131 134 -136 -137 -139 141 -143 -146 148 149 150 0
x 3 -5 8 -9 10 -11 14 -15 -17 -18 -19 -20 -22 -23 25 -26 -27 -29 32 -34 36 39 41 -42 -43 -44 -47 -51 -52 55 56 57 -58 59 61 -65 -66 -67 -68 70 76 78 -83 -86 -87 -90 -92 -97 99 101 -105 -106 -107 110 -111 -113 114 -118 120 122 -123 -126 127 -128 131 133 135 136 137 138 -139 -141 -142 -143 146 -149 -150 0
x -1 -2 3 4 -6 9 -10 -14 15 17 -18 -19 21 25 27 28 29 30 31 32 34 -37 -39 -42 -43 44 -45 46 -48 49 50 -53 54 55 57 -58 -59 60 -61 -63 64 -65 -67 68 -69 72 -73 -74 -76 77 -78 79 80 -84 85 -87 88 -89 92 93 -100 101 -102 103 105 107 109 -110 -111 116 118 121 122 -123 125 -129 130 -131 133 -135 136 137 141 -143 144 147 148 -150 0
x -2 3 -6 9 -12 -15 16 -17 -18 19 20 21 23 -24 -26 29 30 32 -33 34 37 38 -39 -42 43 46 -47 50 -54 -56 57 59 -65 66 -67 -68 72 -73 -76 -77 82 83 -85 86 -87 88 -89 92 -93 -97 98 -99 -102 104 -105 106 107 -110 112 -115 -116 117 119 -120 122 123 -126 -127 130 131 -136 -138 139 142 -146 148 0
x 1 -2 -3 4 6 7 8 9 10 -13 16 17 24 -26 27 29 -31 -34 -36 37 -38 -39 40 -42 44 -45 -46 -47 48 51 -54 -58 59 -62 -63 64 -65 -67 69 -74 -76 -79 81 86 -87 88 -89 -94 -96 97 99 -101 -102 104 105 -106 -108 -111 112 117 -120 121 -122 -126 130 -138 139 140 141 146 -147 148 0
x -1 2 -3 -6 7 -11 12 13 -18 19 -20 -21 -22 24 25 -26 -28 -30 -40 -41 -42 -43 46 48 -49 51 -56 -57 59 60 -61 -65 66 67 -68 -69 -70 -84 -85 86 -87 88 -91 -92 93 94 -95 -96 -99 103 104 -105 106 -108 -111 113 115 116 -118 -119 -120 -121 125 -127 -129 130 -132 135 138 139 -140 141 -144 -145 146 147 148 -150 0
x -1 5 6 -8 -9 -13 14 15 -20 26 -27 -28 29 -35 38 -40 -43 -47 48 -50 52 -54 -55 -56 -57 -59 61 -63 -66 67 -68 -69 -70 72 -74 75 77 79 80 -81 83 84 -86 91 94 -97 99 103 104 -106 107 111 -112 -114 115 -116 117 -118 -120 -121 -123 124 126 132 137 139 140 141 145 146 148 -149 0
x -2 -4 7 -9 -10 11 -12 15 -16 17 -18 20 25 -26 -27 -28 29 30 -37 38 -39 -42 43 -45 46 47 -49 -50 51 53 55 59 -60 -63 -65 -66 69 70 -75 -76 -77 -79 83 85 86 87 -91 92 93 94 95 -96 98 -99 -100 -101 104 107 108 -109 111 -112 -113 -114 117 -119 -120 -122 123 -124 -125 126 130 -134 -135 136 138 139 140 -141 143 -145 148 0
x 1 -5 -7 -8 -13 19 20 21 -23 24 -25 -26 -29 -30 31 -32 -33 35 38 41 -46 47 48 52 53 55 56 57 -60 61 64 66 -69 -70 71 -73 -75 -76 79 80 81 -88 96 -99 -100 101 -102 106 107 108 -109 -110 112 -114 116 119 -121 -123 126 128 -129 131 -132 -133 -137 -138 -139 -140 -142 143 144 -146 -147 150 0
x 3 4 -5 -10 12 -13 15 -16 -17 18 -19 27 -28 -30 -31 33 34 37 -41 -42 43 44 -49 -50 52 54 -57 58 -59 -60 62 -64 65 -71 -72 73 79 -80 -82 -84 -85 -87 89 92 -95 -96 -97 98 100 -104 105 -106 -107 -109 118 -125 -128 -131 133 134 136 -137 138 -139 -140 141 -142 -143 -144 146 149 0
